NAME : XML100_3371_13
DIMENSION : 101
NB_CLUSTERS : 4
CLUSTERING_ALG : KMedoids
CLUSTERING_PARAMS : k(3)
CLUSTERS
1 0
2 1 3 4 5 8 10 11 15 16 18 20 21 22 25 32 33 34 36 39 42 45 46 47 50 52 53 54 55 59 60 65 67 68 71 74 75 77 81 83 87 90 92 94 95 98
3 2 6 12 17 23 26 27 29 30 37 38 40 41 48 58 61 62 63 66 70 72 73 76 78 79 82 84 86 88 89 93 96 97 99
4 7 9 13 14 19 24 28 31 35 43 44 49 51 56 57 64 69 80 85 91 100
EOF